30 123 276
1 3 2
1 4 1
1 6 1
1 7 3
1 8 5
1 9 2
1 11 4
1 12 4
1 14 2
1 21 1
1 24 2
1 27 4
1 30 3
2 5 3
2 7 2
2 8 2
2 18 1
2 19 3
2 21 5
2 26 2
2 29 5
2 30 3
3 5 5
3 10 5
3 11 4
3 12 5
3 14 4
3 21 1
3 28 3
3 30 4
4 6 2
4 8 3
4 9 3
4 13 5
4 17 1
4 19 2
4 23 3
4 27 5
5 7 4
5 8 3
5 10 5
5 11 5
5 17 4
5 29 1
5 30 1
6 7 4
6 8 1
6 10 3
6 11 5
6 14 4
6 16 5
6 23 3
6 24 3
6 25 3
6 30 1
7 8 2
7 10 3
7 14 3
7 16 5
7 21 1
7 22 4
7 23 2
7 26 1
8 12 4
8 13 4
8 14 2
8 23 4
9 15 2
9 18 3
9 22 2
10 20 4
10 21 5
10 25 5
10 26 2
10 27 2
10 29 3
10 30 4
11 12 4
11 13 1
11 14 1
11 16 3
11 17 1
11 18 3
11 22 4
11 23 5
12 13 4
12 14 1
12 16 4
12 21 3
12 22 1
12 24 4
13 14 1
14 15 4
14 17 1
14 28 4
15 16 3
15 17 4
15 18 4
15 20 5
15 25 2
15 26 5
15 27 4
16 20 2
16 26 5
16 29 3
17 19 1
17 29 4
18 28 2
18 29 2
19 23 5
19 28 2
19 29 5
20 23 2
21 29 2
22 23 2
22 24 3
22 27 5
22 29 5
24 25 4
24 26 2
24 27 4
25 30 1
26 30 3
